1,31
10,11
62,37
168,88
24,12
57,82
118,84
116,28
1,29
195,63
9,96
17,22
12,23
126,2
96,14
176,98
74,35
15,21
150,3
171,46
14,45
166,37
85,44
77,64
186,55
4,88
61,96
40,44
34,68
23,2
37,30
50,89
91,61
13,54
177,9
162,8
149,11
80,56
149,90
127,5
13,5
174,96
37,19
33,22
142,9
157,10
158,20
104,4
39,23
109,71
